Version identifier: 22.1.1.0 | 2022-11-28 | 9160aff4d
CPXPARAM_Read_DataCheck                          1
CPXPARAM_MIP_Strategy_VariableSelect             3
CPXPARAM_MIP_Cuts_FlowCovers                     1
CPXPARAM_MIP_Cuts_Implied                        1
CPXPARAM_MIP_Cuts_Gomory                         1
CPXPARAM_MIP_Cuts_MIRCut                         1
CPXPARAM_MIP_Strategy_Search                     1
CPXPARAM_MIP_Strategy_HeuristicFreq              10
CPXPARAM_MIP_Tolerances_MIPGap                   0.0050000000000000001
Tried aggregator 2 times.
MIP Presolve eliminated 52 rows and 77 columns.
MIP Presolve added 8 rows and 0 columns.
MIP Presolve modified 705 coefficients.
Aggregator did 12 substitutions.
Reduced MIP has 136 rows, 148 columns, and 624 nonzeros.
Reduced MIP has 137 binaries, 0 generals, 0 SOSs, and 0 indicators.
Presolve time = 0.00 sec. (1.17 ticks)
Found incumbent of value 706.000000 after 0.00 sec. (1.82 ticks)
Probing time = 0.00 sec. (0.33 ticks)
Tried aggregator 1 time.
Detecting symmetries...
Reduced MIP has 136 rows, 148 columns, and 624 nonzeros.
Reduced MIP has 137 binaries, 0 generals, 0 SOSs, and 0 indicators.
Presolve time = 0.00 sec. (0.42 ticks)
Probing time = 0.00 sec. (0.34 ticks)
Clique table members: 123.
MIP emphasis: balance optimality and feasibility.
MIP search method: traditional branch-and-cut.
Parallel mode: deterministic, using up to 12 threads.
Root relaxation solution time = 0.00 sec. (0.29 ticks)

        Nodes                                         Cuts/
   Node  Left     Objective  IInf  Best Integer    Best Bound    ItCnt     Gap         Variable B NodeID Parent  Depth

*     0+    0                          706.0000        0.0000           100.00%
*     0+    0                          686.0000        0.0000           100.00%
      0     0      237.2727    24      686.0000      237.2727       33   65.41%
      0     0      301.5000    24      686.0000      Cuts: 54       52   56.05%
*     0+    0                          391.0000      301.5000            22.89%
*     0     0      integral     0      304.0000       Cuts: 9       62    0.00%
      0     0        cutoff            304.0000      304.0000       62    0.00%                        0             0
Elapsed time = 0.03 sec. (7.82 ticks, tree = 0.01 MB, solutions = 4)

Clique cuts applied:  5
Cover cuts applied:  1
Implied bound cuts applied:  5
Flow cuts applied:  0
Mixed integer rounding cuts applied:  1
Zero-half cuts applied:  2
Multi commodity flow cuts applied:  2
Gomory fractional cuts applied:  1

Root node processing (before b&c):
  Real time             =    0.03 sec. (7.84 ticks)
Parallel b&c, 12 threads:
  Real time             =    0.00 sec. (0.00 ticks)
  Sync time (average)   =    0.00 sec.
  Wait time (average)   =    0.00 sec.
                          ------------
Total (root+branch&cut) =    0.03 sec. (7.84 ticks)
